Route 1: 0 5 44 10 96 62 38 76 99 82 57 28 64 0
Route 2: 0 97 22 56 23 60 12 8 86 20 45 0
Route 3: 0 49 80 1 43 77 79 0
Route 4: 0 83 46 63 51 17 19 0
Route 5: 0 40 67 4 6 9 30 91 13 0
Route 6: 0 34 84 68 11 39 27 47 0
Route 7: 0 75 93 70 74 90 48 29 25 53 36 0
Route 8: 0 95 18 37 42 52 73 100 72 16 21 14 31 0
Route 9: 0 66 89 71 32 87 81 35 69 24 85 0
Route 10: 0 65 94 54 58 61 33 50 92 55 88 7 0
Route 11: 0 78 15 2 41 3 98 26 59 0
